(declare-fun var0 () String)
(assert (RegexIn var0 (RegexConcat (RegexUnion (RegexPlus (Str2Reg "/")) (RegexStar (Str2Reg ":::"))) (RegexConcat (RegexPlus (RegexStar (Str2Reg "..."))) (RegexConcat (RegexPlus (RegexStar (Str2Reg "--"))) (RegexConcat (RegexUnion (RegexPlus (Str2Reg "+++")) (RegexPlus (Str2Reg ",,"))) (RegexConcat (RegexPlus (RegexStar (Str2Reg "***"))) (RegexConcat (RegexStar (RegexUnion (Str2Reg "(((") (Str2Reg ")))"))) (RegexConcat (RegexUnion (RegexUnion (Str2Reg "%") (Str2Reg "&")) (RegexStar (Str2Reg "'''"))) (RegexConcat (RegexStar (RegexUnion (Str2Reg "#") (Str2Reg "$"))) (RegexConcat (RegexUnion (RegexUnion (Str2Reg "Y") (Str2Reg "ZZZ")) (RegexUnion (Str2Reg "!") (Str2Reg "\"\"\""))) (RegexConcat (RegexUnion (RegexUnion (Str2Reg "UUU") (Str2Reg "V")) (RegexUnion (Str2Reg "WWW") (Str2Reg "XXX"))) (RegexConcat (RegexPlus (RegexUnion (Str2Reg "SS") (Str2Reg "T"))) (RegexConcat (RegexPlus (RegexUnion (Str2Reg "Q") (Str2Reg "RR"))) (RegexConcat (RegexPlus (RegexStar (Str2Reg "P"))) (RegexConcat (RegexPlus (RegexPlus (Str2Reg "OOO"))) (RegexConcat (RegexStar (RegexUnion (Str2Reg "MM") (Str2Reg "NNN"))) (RegexConcat (RegexUnion (RegexStar (Str2Reg "KK")) (RegexPlus (Str2Reg "LL"))) (RegexConcat (RegexPlus (RegexStar (Str2Reg "JJ"))) (RegexConcat (RegexUnion (RegexStar (Str2Reg "GG")) (RegexUnion (Str2Reg "HHH") (Str2Reg "III"))) (RegexConcat (RegexPlus (RegexUnion (Str2Reg "E") (Str2Reg "F"))) (RegexConcat (RegexUnion (RegexPlus (Str2Reg "B")) (RegexUnion (Str2Reg "C") (Str2Reg "D"))) (RegexConcat (RegexPlus (RegexStar (Str2Reg "AA"))) (RegexConcat (RegexStar (RegexStar (Str2Reg "zz"))) (RegexConcat (RegexStar (RegexStar (Str2Reg "y"))) (RegexConcat (RegexStar (RegexStar (Str2Reg "xx"))) (RegexConcat (RegexPlus (RegexPlus (Str2Reg "www"))) (RegexConcat (RegexStar (RegexPlus (Str2Reg "v"))) (RegexConcat (RegexPlus (RegexPlus (Str2Reg "u"))) (RegexConcat (RegexStar (RegexUnion (Str2Reg "ss") (Str2Reg "ttt"))) (RegexConcat (RegexStar (RegexStar (Str2Reg "r"))) (RegexConcat (RegexStar (RegexPlus (Str2Reg "qq"))) (RegexConcat (RegexStar (RegexStar (Str2Reg "pp"))) (RegexConcat (RegexUnion (RegexUnion (Str2Reg "l") (Str2Reg "mm")) (RegexUnion (Str2Reg "n") (Str2Reg "o"))) (RegexConcat (RegexUnion (RegexStar (Str2Reg "iii")) (RegexUnion (Str2Reg "jjj") (Str2Reg "k"))) (RegexConcat (RegexStar (RegexStar (Str2Reg "hhh"))) (RegexConcat (RegexPlus (RegexStar (Str2Reg "ggg"))) (RegexConcat (RegexPlus (RegexUnion (Str2Reg "e") (Str2Reg "fff"))) (RegexConcat (RegexStar (RegexPlus (Str2Reg "dd"))) (RegexConcat (RegexStar (RegexPlus (Str2Reg "cc"))) (RegexConcat (RegexStar (RegexUnion (Str2Reg "a") (Str2Reg "b"))) (RegexConcat (RegexPlus (RegexPlus (Str2Reg "999"))) (RegexConcat (RegexStar (RegexUnion (Str2Reg "777") (Str2Reg "8"))) (RegexConcat (RegexUnion (RegexUnion (Str2Reg "333") (Str2Reg "444")) (RegexUnion (Str2Reg "555") (Str2Reg "666"))) (RegexConcat (RegexPlus (RegexUnion (Str2Reg "111") (Str2Reg "2"))) (RegexConcat (RegexPlus (RegexUnion (Str2Reg "~~~") (Str2Reg "000"))) (RegexConcat (RegexPlus (RegexPlus (Str2Reg "}}"))) (RegexConcat (RegexPlus (RegexPlus (Str2Reg "||"))) (RegexConcat (RegexStar (RegexPlus (Str2Reg "{{"))) (RegexConcat (RegexPlus (RegexUnion (Str2Reg "___") (Str2Reg "``"))) (RegexConcat (RegexPlus (RegexStar (Str2Reg "^"))) (RegexConcat (RegexStar (RegexUnion (Str2Reg "\\") (Str2Reg "]"))) (RegexConcat (RegexStar (RegexPlus (Str2Reg "["))) (RegexConcat (RegexPlus (RegexUnion (Str2Reg "???") (Str2Reg "@"))) (RegexConcat (RegexUnion (RegexPlus (Str2Reg "===")) (RegexPlus (Str2Reg ">>"))) (RegexConcat (RegexStar (RegexStar (Str2Reg "<"))) (RegexConcat (RegexStar (RegexUnion (Str2Reg ":::") (Str2Reg ";"))) (RegexConcat (RegexUnion (RegexPlus (Str2Reg "..")) (RegexPlus (Str2Reg "//"))) (RegexConcat (RegexUnion (RegexUnion (Str2Reg "***") (Str2Reg "+++")) (RegexUnion (Str2Reg ",") (Str2Reg "---"))) (RegexConcat (RegexUnion (RegexUnion (Str2Reg "'''") (Str2Reg "(((")) (RegexPlus (Str2Reg ")"))) (RegexConcat (RegexPlus (RegexPlus (Str2Reg "&"))) (RegexConcat (RegexUnion (RegexStar (Str2Reg "$$$")) (RegexPlus (Str2Reg "%%%"))) (RegexConcat (RegexStar (RegexPlus (Str2Reg "#"))) (RegexConcat (RegexUnion (RegexUnion (Str2Reg "ZZ") (Str2Reg "!")) (RegexStar (Str2Reg "\""))) (RegexConcat (RegexStar (RegexPlus (Str2Reg "YY"))) (RegexConcat (RegexPlus (RegexUnion (Str2Reg "W") (Str2Reg "XX"))) (RegexConcat (RegexUnion (RegexPlus (Str2Reg "U")) (RegexStar (Str2Reg "VVV"))) (RegexConcat (RegexUnion (RegexStar (Str2Reg "SSS")) (RegexStar (Str2Reg "T"))) (RegexConcat (RegexStar (RegexUnion (Str2Reg "QQQ") (Str2Reg "RRR"))) (RegexConcat (RegexUnion (RegexPlus (Str2Reg "OOO")) (RegexPlus (Str2Reg "PPP"))) (RegexConcat (RegexStar (RegexPlus (Str2Reg "NN"))) (RegexConcat (RegexPlus (RegexUnion (Str2Reg "LL") (Str2Reg "MM"))) (RegexConcat (RegexStar (RegexPlus (Str2Reg "KKK"))) (RegexConcat (RegexUnion (RegexPlus (Str2Reg "HHH")) (RegexUnion (Str2Reg "III") (Str2Reg "J"))) (RegexConcat (RegexUnion (RegexUnion (Str2Reg "DD") (Str2Reg "EE")) (RegexUnion (Str2Reg "F") (Str2Reg "G"))) (RegexConcat (RegexPlus (RegexStar (Str2Reg "C"))) (RegexConcat (RegexPlus (RegexUnion (Str2Reg "AA") (Str2Reg "BBB"))) (RegexConcat (RegexUnion (RegexPlus (Str2Reg "yy")) (RegexStar (Str2Reg "zz"))) (RegexConcat (RegexUnion (RegexPlus (Str2Reg "v")) (RegexUnion (Str2Reg "www") (Str2Reg "x"))) (RegexConcat (RegexPlus (RegexUnion (Str2Reg "t") (Str2Reg "u"))) (RegexConcat (RegexStar (RegexStar (Str2Reg "sss"))) (RegexConcat (RegexUnion (RegexStar (Str2Reg "ppp")) (RegexUnion (Str2Reg "qqq") (Str2Reg "r"))) (RegexConcat (RegexUnion (RegexPlus (Str2Reg "nn")) (RegexPlus (Str2Reg "ooo"))) (RegexConcat (RegexStar (RegexStar (Str2Reg "m"))) (RegexConcat (RegexPlus (RegexStar (Str2Reg "lll"))) (RegexConcat (RegexPlus (RegexUnion (Str2Reg "jjj") (Str2Reg "k"))) (RegexConcat (RegexUnion (RegexUnion (Str2Reg "ggg") (Str2Reg "h")) (RegexStar (Str2Reg "iii"))) (RegexConcat (RegexUnion (RegexStar (Str2Reg "dd")) (RegexUnion (Str2Reg "ee") (Str2Reg "fff"))) (RegexConcat (RegexStar (RegexPlus (Str2Reg "c"))) (RegexConcat (RegexStar (RegexUnion (Str2Reg "a") (Str2Reg "bbb"))) (RegexConcat (RegexStar (RegexStar (Str2Reg "9"))) (RegexConcat (RegexStar (RegexStar (Str2Reg "88"))) (RegexConcat (RegexStar (RegexPlus (Str2Reg "777"))) (RegexConcat (RegexPlus (RegexPlus (Str2Reg "6"))) (RegexConcat (RegexUnion (RegexStar (Str2Reg "44")) (RegexStar (Str2Reg "555"))) (RegexConcat (RegexUnion (RegexStar (Str2Reg "22")) (RegexPlus (Str2Reg "33"))) (RegexConcat (RegexPlus (RegexPlus (Str2Reg "1"))) (RegexConcat (RegexUnion (RegexPlus (Str2Reg "~~")) (RegexStar (Str2Reg "0"))) (RegexConcat (RegexPlus (RegexUnion (Str2Reg "|||") (Str2Reg "}}}"))) (RegexConcat (RegexUnion (RegexUnion (Str2Reg "^") (Str2Reg "___")) (RegexUnion (Str2Reg "```") (Str2Reg "{{{"))) (RegexConcat (RegexPlus (RegexPlus (Str2Reg "]"))) (RegexConcat (RegexStar (RegexUnion (Str2Reg "[[[") (Str2Reg "\\\\"))) (RegexConcat (RegexStar (RegexUnion (Str2Reg "?") (Str2Reg "@"))) (RegexConcat (RegexStar (RegexPlus (Str2Reg ">"))) (RegexConcat (RegexPlus (RegexUnion (Str2Reg "<") (Str2Reg "=="))) (RegexConcat (RegexPlus (RegexUnion (Str2Reg ":") (Str2Reg ";;;"))) (RegexConcat (RegexUnion (RegexStar (Str2Reg "-")) (RegexUnion (Str2Reg "...") (Str2Reg "//"))) (RegexConcat (RegexPlus (RegexUnion (Str2Reg "+++") (Str2Reg ",,"))) (RegexConcat (RegexStar (RegexUnion (Str2Reg "))") (Str2Reg "**"))) (RegexConcat (RegexStar (RegexStar (Str2Reg "("))) (RegexConcat (RegexStar (RegexPlus (Str2Reg "'"))) (RegexConcat (RegexUnion (RegexPlus (Str2Reg "$$$")) (RegexUnion (Str2Reg "%%") (Str2Reg "&&&"))) (RegexConcat (RegexPlus (RegexUnion (Str2Reg "\"\"") (Str2Reg "##"))) (RegexConcat (RegexStar (RegexUnion (Str2Reg "ZZZ") (Str2Reg "!!!"))) (RegexConcat (RegexPlus (RegexStar (Str2Reg "Y"))) (RegexConcat (RegexPlus (RegexStar (Str2Reg "XX"))) (RegexConcat (RegexPlus (RegexUnion (Str2Reg "VV") (Str2Reg "WWW"))) (RegexConcat (RegexPlus (RegexUnion (Str2Reg "TTT") (Str2Reg "UU"))) (RegexConcat (RegexUnion (RegexPlus (Str2Reg "RRR")) (RegexPlus (Str2Reg "SS"))) (RegexConcat (RegexUnion (RegexUnion (Str2Reg "NN") (Str2Reg "OOO")) (RegexUnion (Str2Reg "PPP") (Str2Reg "Q"))) (RegexConcat (RegexUnion (RegexUnion (Str2Reg "JJ") (Str2Reg "K")) (RegexUnion (Str2Reg "L") (Str2Reg "MMM"))) (RegexConcat (RegexPlus (RegexUnion (Str2Reg "HHH") (Str2Reg "I"))) (RegexConcat (RegexPlus (RegexPlus (Str2Reg "G"))) (RegexConcat (RegexStar (RegexPlus (Str2Reg "F"))) (RegexConcat (RegexPlus (RegexStar (Str2Reg "EEE"))) (RegexConcat (RegexStar (RegexUnion (Str2Reg "CCC") (Str2Reg "DDD"))) (RegexConcat (RegexStar (RegexPlus (Str2Reg "B"))) (RegexConcat (RegexStar (RegexUnion (Str2Reg "z") (Str2Reg "AA"))) (RegexConcat (RegexPlus (RegexStar (Str2Reg "yyy"))) (RegexConcat (RegexUnion (RegexStar (Str2Reg "w")) (RegexPlus (Str2Reg "xxx"))) (RegexConcat (RegexPlus (RegexStar (Str2Reg "v"))) (RegexConcat (RegexUnion (RegexPlus (Str2Reg "ttt")) (RegexStar (Str2Reg "uu"))) (RegexConcat (RegexStar (RegexStar (Str2Reg "ss"))) (RegexConcat (RegexPlus (RegexPlus (Str2Reg "rr"))) (RegexConcat (RegexUnion (RegexUnion (Str2Reg "oo") (Str2Reg "ppp")) (RegexStar (Str2Reg "q"))) (RegexConcat (RegexStar (RegexStar (Str2Reg "nnn"))) (RegexConcat (RegexUnion (RegexPlus (Str2Reg "l")) (RegexPlus (Str2Reg "mmm"))) (RegexConcat (RegexUnion (RegexPlus (Str2Reg "iii")) (RegexUnion (Str2Reg "j") (Str2Reg "kk"))) (RegexConcat (RegexStar (RegexStar (Str2Reg "hhh"))) (RegexConcat (RegexPlus (RegexPlus (Str2Reg "gg"))) (RegexConcat (RegexStar (RegexPlus (Str2Reg "ff"))) (RegexConcat (RegexUnion (RegexPlus (Str2Reg "d")) (RegexPlus (Str2Reg "ee"))) (RegexConcat (RegexUnion (RegexPlus (Str2Reg "bb")) (RegexPlus (Str2Reg "ccc"))) (RegexConcat (RegexUnion (RegexPlus (Str2Reg "999")) (RegexPlus (Str2Reg "aa"))) (RegexConcat (RegexPlus (RegexUnion (Str2Reg "777") (Str2Reg "88"))) (RegexConcat (RegexUnion (RegexStar (Str2Reg "555")) (RegexStar (Str2Reg "6"))) (RegexConcat (RegexPlus (RegexStar (Str2Reg "44"))) (RegexConcat (RegexPlus (RegexPlus (Str2Reg "33"))) (RegexConcat (RegexPlus (RegexStar (Str2Reg "2"))) (RegexConcat (RegexPlus (RegexStar (Str2Reg "11"))) (RegexConcat (RegexStar (RegexUnion (Str2Reg "~") (Str2Reg "00"))) (RegexConcat (RegexPlus (RegexPlus (Str2Reg "}}}"))) (RegexConcat (RegexStar (RegexStar (Str2Reg "|"))) (RegexConcat (RegexPlus (RegexStar (Str2Reg "{{"))) (RegexConcat (RegexPlus (RegexStar (Str2Reg "`"))) (RegexConcat (RegexUnion (RegexStar (Str2Reg "^^^")) (RegexPlus (Str2Reg "_"))) (RegexConcat (RegexUnion (RegexStar (Str2Reg "\\\\")) (RegexPlus (Str2Reg "]]"))) (RegexConcat (RegexPlus (RegexPlus (Str2Reg "[[["))) (RegexConcat (RegexUnion (RegexPlus (Str2Reg "??")) (RegexPlus (Str2Reg "@@@"))) (RegexConcat (RegexUnion (RegexStar (Str2Reg "==")) (RegexPlus (Str2Reg ">>>"))) (RegexConcat (RegexUnion (RegexPlus (Str2Reg ":::")) (RegexUnion (Str2Reg ";") (Str2Reg "<"))) (RegexConcat (RegexPlus (RegexPlus (Str2Reg "/"))) (RegexConcat (RegexPlus (RegexPlus (Str2Reg ".."))) (RegexConcat (RegexUnion (RegexStar (Str2Reg "+++")) (RegexUnion (Str2Reg ",,") (Str2Reg "---"))) (RegexConcat (RegexStar (RegexUnion (Str2Reg ")))") (Str2Reg "*"))) (RegexConcat (RegexUnion (RegexUnion (Str2Reg "%%%") (Str2Reg "&")) (RegexUnion (Str2Reg "'") (Str2Reg "(("))) (RegexConcat (RegexStar (RegexPlus (Str2Reg "$$"))) (RegexConcat (RegexPlus (RegexStar (Str2Reg "###"))) (RegexConcat (RegexPlus (RegexUnion (Str2Reg "!!") (Str2Reg "\""))) (RegexConcat (RegexUnion (RegexStar (Str2Reg "Y")) (RegexPlus (Str2Reg "ZZ"))) (RegexConcat (RegexPlus (RegexPlus (Str2Reg "XXX"))) (RegexConcat (RegexUnion (RegexStar (Str2Reg "U")) (RegexUnion (Str2Reg "V") (Str2Reg "W"))) (RegexConcat (RegexPlus (RegexPlus (Str2Reg "TT"))) (RegexConcat (RegexPlus (RegexUnion (Str2Reg "R") (Str2Reg "SS"))) (RegexConcat (RegexPlus (RegexUnion (Str2Reg "PPP") (Str2Reg "Q"))) (RegexConcat (RegexStar (RegexUnion (Str2Reg "NNN") (Str2Reg "OO"))) (RegexConcat (RegexUnion (RegexPlus (Str2Reg "K")) (RegexUnion (Str2Reg "LL") (Str2Reg "M"))) (RegexConcat (RegexStar (RegexStar (Str2Reg "J"))) (RegexConcat (RegexPlus (RegexUnion (Str2Reg "HH") (Str2Reg "I"))) (RegexConcat (RegexUnion (RegexStar (Str2Reg "FFF")) (RegexStar (Str2Reg "GG"))) (RegexConcat (RegexStar (RegexUnion (Str2Reg "DD") (Str2Reg "E"))) (RegexConcat (RegexUnion (RegexStar (Str2Reg "BBB")) (RegexStar (Str2Reg "CCC"))) (RegexConcat (RegexPlus (RegexUnion (Str2Reg "zz") (Str2Reg "AAA"))) (RegexConcat (RegexStar (RegexPlus (Str2Reg "yy"))) (RegexConcat (RegexStar (RegexStar (Str2Reg "xxx"))) (RegexConcat (RegexStar (RegexPlus (Str2Reg "www"))) (RegexConcat (RegexStar (RegexPlus (Str2Reg "vvv"))) (RegexConcat (RegexPlus (RegexUnion (Str2Reg "t") (Str2Reg "u"))) (RegexConcat (RegexPlus (RegexPlus (Str2Reg "s"))) (RegexConcat (RegexStar (RegexPlus (Str2Reg "r"))) (RegexConcat (RegexUnion (RegexUnion (Str2Reg "o") (Str2Reg "pp")) (RegexStar (Str2Reg "qqq"))) (RegexConcat (RegexStar (RegexPlus (Str2Reg "nnn"))) (RegexConcat (RegexPlus (RegexUnion (Str2Reg "ll") (Str2Reg "mmm"))) (RegexConcat (RegexPlus (RegexStar (Str2Reg "k"))) (RegexConcat (RegexStar (RegexUnion (Str2Reg "i") (Str2Reg "jj"))) (RegexConcat (RegexPlus (RegexUnion (Str2Reg "ggg") (Str2Reg "h"))) (RegexConcat (RegexStar (RegexPlus (Str2Reg "fff"))) (RegexConcat (RegexUnion (RegexPlus (Str2Reg "dd")) (RegexStar (Str2Reg "ee"))) (RegexConcat (RegexUnion (RegexStar (Str2Reg "a")) (RegexUnion (Str2Reg "bbb") (Str2Reg "ccc"))) (RegexConcat (RegexUnion (RegexPlus (Str2Reg "77")) (RegexUnion (Str2Reg "88") (Str2Reg "99"))) (RegexConcat (RegexPlus (RegexPlus (Str2Reg "66"))) (RegexConcat (RegexPlus (RegexUnion (Str2Reg "444") (Str2Reg "55"))) (RegexConcat (RegexPlus (RegexStar (Str2Reg "33"))) (RegexConcat (RegexPlus (RegexStar (Str2Reg "222"))) (RegexConcat (RegexStar (RegexStar (Str2Reg "1"))) (RegexStar (RegexPlus (Str2Reg "00"))))))))))))))))))))))))))))))))))))))))))))))))))))))))))))))))))))))))))))))))))))))))))))))))))))))))))))))))))))))))))))))))))))))))))))))))))))))))))))))))))))))))))))))))))))))))))))))))))))))))))))))))
(check-sat)